3 
4  38 56 
5  18 34 50 
6  05 20 35 50 
7  05 20 35 50 
8  05 20 35 50 
9  05 20 35 51 
10  06 21 36 51 
11  06 21 36 51 
12  06 21 36 51 
13  07 22 37 52 
14  07 22 37 52 
15  06 21 36 51 
16  06 21 36 51 
17  06 21 36 51 
18  06 21 36 52 
19  06 21 36 51 
20  06 21 36 51 
21  06 21 36 51 
22  06 25 40 55 
23 
0 
